(set-logic QF_NRA)
(set-info :source |Benchmarks generated from hycomp (https://es-static.fbk.eu/tools/hycomp/). BMC instances of non-linear hybrid automata taken from: Alessandro Cimatti, Sergio Mover, Stefano Tonetta, A quantifier-free SMT encoding of non-linear hybrid automata, FMCAD 2012 and Alessandro Cimatti, Sergio Mover, Stefano Tonetta, Quantier-free encoding of invariants for Hybrid Systems, Formal Methods in System Design. This instance solves a BMC problem of depth 3 and uses the quantifier free encoding with equivalences and lemmas encoding. Contacts: Sergio Mover (mover@fbk.eu), Stefano Tonetta (tonettas@fbk.eu), Alessandro Cimatti (cimatti@fbk.eu).|)
(set-info :smt-lib-version 2.0)
(set-info :category "industrial")
(set-info :status unsat)
;; MathSAT API call trace
;; generated on Mon Mar 19 10:45:39 2012
(declare-fun b.EVENT.0__AT2 () Bool)
(declare-fun b.counter.1__AT2 () Bool)
(declare-fun b.time__AT1 () Real)
(declare-fun g__AT0 () Real)
(declare-fun b.y__AT0 () Real)
(declare-fun b.EVENT.0__AT1 () Bool)
(declare-fun b.speed_y__AT1 () Real)
(declare-fun b.EVENT.0__AT3 () Bool)
(declare-fun b.counter.3__AT3 () Bool)
(declare-fun b.EVENT.1__AT2 () Bool)
(declare-fun b.counter.2__AT2 () Bool)
(declare-fun b.delta__AT1 () Real)
(declare-fun b.counter.0__AT0 () Bool)
(declare-fun b.EVENT.1__AT1 () Bool)
(declare-fun b.EVENT.1__AT3 () Bool)
(declare-fun b.counter.3__AT2 () Bool)
(declare-fun b.delta__AT0 () Real)
(declare-fun b.counter.1__AT0 () Bool)
(declare-fun b.speed_x__AT3 () Real)
(declare-fun b.EVENT.0__AT0 () Bool)
(declare-fun b.speed_y__AT3 () Real)
(declare-fun b.speed_x__AT2 () Real)
(declare-fun b.x__AT1 () Real)
(declare-fun b.speed_y__AT2 () Real)
(declare-fun b.speed_y__AT0 () Real)
(declare-fun b.counter.3__AT0 () Bool)
(declare-fun b.event_is_timed__AT0 () Bool)
(declare-fun speed_loss__AT0 () Real)
(declare-fun b.y__AT1 () Real)
(declare-fun b.event_is_timed__AT2 () Bool)
(declare-fun b.event_is_timed__AT1 () Bool)
(declare-fun b.counter.0__AT1 () Bool)
(declare-fun b.event_is_timed__AT3 () Bool)
(declare-fun b.speed_x__AT0 () Real)
(declare-fun b.counter.1__AT1 () Bool)
(declare-fun b.time__AT0 () Real)
(declare-fun b.counter.2__AT0 () Bool)
(declare-fun b.counter.2__AT1 () Bool)
(declare-fun b.y__AT3 () Real)
(declare-fun b.counter.3__AT1 () Bool)
(declare-fun b.counter.0__AT3 () Bool)
(declare-fun b.time__AT2 () Real)
(declare-fun b.y__AT2 () Real)
(declare-fun b.x__AT3 () Real)
(declare-fun b.EVENT.1__AT0 () Bool)
(declare-fun b.x__AT0 () Real)
(declare-fun b.time__AT3 () Real)
(declare-fun b.counter.1__AT3 () Bool)
(declare-fun b.delta__AT2 () Real)
(declare-fun b.counter.0__AT2 () Bool)
(declare-fun b.speed_x__AT1 () Real)
(declare-fun b.delta__AT3 () Real)
(declare-fun b.x__AT2 () Real)
(declare-fun b.counter.2__AT3 () Bool)
(assert (let ((.def_76 (* (- 1.0) g__AT0)))
(let ((.def_77 (* (/ 1 2) .def_76)))
(let ((.def_84 (* 2.0 .def_77)))
(let ((.def_725 (* .def_84 b.delta__AT3)))
(let ((.def_726 (+ b.speed_y__AT3 .def_725)))
(let ((.def_743 (<= .def_726 0.0 )))
(let ((.def_744 (not .def_743)))
(let ((.def_741 (<= b.speed_y__AT3 0.0 )))
(let ((.def_764 (or .def_741 .def_744)))
(let ((.def_729 (<= 0.0 b.speed_y__AT3)))
(let ((.def_730 (not .def_729)))
(let ((.def_727 (<= 0.0 .def_726)))
(let ((.def_763 (or .def_727 .def_730)))
(let ((.def_765 (and .def_763 .def_764)))
(let ((.def_124 (<= 0.0 g__AT0)))
(let ((.def_766 (or .def_124 .def_765)))
(let ((.def_728 (not .def_727)))
(let ((.def_760 (or .def_728 .def_729)))
(let ((.def_742 (not .def_741)))
(let ((.def_759 (or .def_742 .def_743)))
(let ((.def_761 (and .def_759 .def_760)))
(let ((.def_119 (<= g__AT0 0.0 )))
(let ((.def_762 (or .def_119 .def_761)))
(let ((.def_767 (and .def_762 .def_766)))
(let ((.def_756 (and .def_741 .def_743)))
(let ((.def_755 (and .def_727 .def_729)))
(let ((.def_757 (or .def_755 .def_756)))
(let ((.def_720 (* b.speed_y__AT3 b.delta__AT3)))
(let ((.def_718 (* b.delta__AT3 b.delta__AT3)))
(let ((.def_719 (* .def_77 .def_718)))
(let ((.def_721 (+ .def_719 .def_720)))
(let ((.def_722 (+ b.y__AT3 .def_721)))
(let ((.def_735 (<= .def_722 0.0 )))
(let ((.def_749 (not .def_735)))
(let ((.def_733 (<= b.y__AT3 0.0 )))
(let ((.def_750 (or .def_733 .def_749)))
(let ((.def_706 (<= 0.0 b.y__AT3)))
(let ((.def_747 (not .def_706)))
(let ((.def_723 (<= 0.0 .def_722)))
(let ((.def_748 (or .def_723 .def_747)))
(let ((.def_751 (and .def_748 .def_750)))
(let ((.def_745 (or .def_742 .def_744)))
(let ((.def_746 (not .def_745)))
(let ((.def_752 (or .def_746 .def_751)))
(let ((.def_737 (not .def_723)))
(let ((.def_738 (or .def_706 .def_737)))
(let ((.def_734 (not .def_733)))
(let ((.def_736 (or .def_734 .def_735)))
(let ((.def_739 (and .def_736 .def_738)))
(let ((.def_731 (or .def_728 .def_730)))
(let ((.def_732 (not .def_731)))
(let ((.def_740 (or .def_732 .def_739)))
(let ((.def_753 (and .def_740 .def_752)))
(let ((.def_724 (and .def_706 .def_723)))
(let ((.def_754 (and .def_724 .def_753)))
(let ((.def_758 (and .def_754 .def_757)))
(let ((.def_768 (and .def_758 .def_767)))
(let ((.def_57 (<= g__AT0 10.0 )))
(let ((.def_56 (<= 8.0 g__AT0)))
(let ((.def_58 (and .def_56 .def_57)))
(let ((.def_769 (and .def_58 .def_768)))
(let ((.def_65 (<= speed_loss__AT0 (/ 1 2))))
(let ((.def_62 (<= (/ 1 10) speed_loss__AT0)))
(let ((.def_66 (and .def_62 .def_65)))
(let ((.def_770 (and .def_66 .def_769)))
(let ((.def_399 (not b.counter.0__AT2)))
(let ((.def_387 (not b.counter.1__AT2)))
(let ((.def_710 (and .def_387 .def_399)))
(let ((.def_713 (or b.counter.3__AT2 .def_710)))
(let ((.def_394 (not b.counter.2__AT2)))
(let ((.def_711 (and .def_394 .def_710)))
(let ((.def_409 (not b.counter.3__AT2)))
(let ((.def_712 (or .def_409 .def_711)))
(let ((.def_714 (and .def_712 .def_713)))
(let ((.def_67 (and .def_58 .def_66)))
(let ((.def_707 (and .def_67 .def_706)))
(let ((.def_703 (not b.EVENT.0__AT3)))
(let ((.def_701 (not b.EVENT.1__AT3)))
(let ((.def_704 (or .def_701 .def_703)))
(let ((.def_6 (not b.counter.0__AT3)))
(let ((.def_4 (not b.counter.1__AT3)))
(let ((.def_694 (or .def_4 .def_6)))
(let ((.def_698 (or b.counter.3__AT3 .def_694)))
(let ((.def_695 (or b.counter.2__AT3 .def_694)))
(let ((.def_9 (not b.counter.2__AT3)))
(let ((.def_693 (or .def_6 .def_9)))
(let ((.def_696 (and .def_693 .def_695)))
(let ((.def_12 (not b.counter.3__AT3)))
(let ((.def_697 (or .def_12 .def_696)))
(let ((.def_699 (and .def_697 .def_698)))
(let ((.def_705 (and .def_699 .def_704)))
(let ((.def_708 (and .def_705 .def_707)))
(let ((.def_688 (<= 0.0 b.delta__AT2)))
(let ((.def_497 (not b.EVENT.0__AT2)))
(let ((.def_495 (not b.EVENT.1__AT2)))
(let ((.def_592 (and .def_495 .def_497)))
(let ((.def_593 (not .def_592)))
(let ((.def_689 (or .def_593 .def_688)))
(let ((.def_690 (or b.EVENT.1__AT2 .def_689)))
(let ((.def_637 (= b.counter.0__AT3 b.counter.0__AT2)))
(let ((.def_635 (= b.counter.1__AT3 b.counter.1__AT2)))
(let ((.def_633 (= b.counter.2__AT3 b.counter.2__AT2)))
(let ((.def_632 (= b.counter.3__AT3 b.counter.3__AT2)))
(let ((.def_634 (and .def_632 .def_633)))
(let ((.def_636 (and .def_634 .def_635)))
(let ((.def_638 (and .def_636 .def_637)))
(let ((.def_685 (or .def_593 .def_638)))
(let ((.def_686 (or b.EVENT.1__AT2 .def_685)))
(let ((.def_645 (= b.x__AT2 b.x__AT3)))
(let ((.def_642 (= b.y__AT2 b.y__AT3)))
(let ((.def_679 (and .def_642 .def_645)))
(let ((.def_573 (= b.speed_x__AT2 b.speed_x__AT3)))
(let ((.def_680 (and .def_573 .def_679)))
(let ((.def_631 (= b.speed_y__AT2 b.speed_y__AT3)))
(let ((.def_681 (and .def_631 .def_680)))
(let ((.def_676 (= b.delta__AT2 0.0 )))
(let ((.def_677 (and .def_592 .def_676)))
(let ((.def_678 (not .def_677)))
(let ((.def_682 (or .def_678 .def_681)))
(let ((.def_683 (or b.EVENT.1__AT2 .def_682)))
(let ((.def_656 (= b.time__AT2 b.time__AT3)))
(let ((.def_668 (and .def_645 .def_656)))
(let ((.def_669 (and .def_642 .def_668)))
(let ((.def_670 (and .def_573 .def_669)))
(let ((.def_671 (and .def_631 .def_670)))
(let ((.def_672 (and .def_638 .def_671)))
(let ((.def_673 (or .def_495 .def_672)))
(let ((.def_659 (* (- 1.0) b.time__AT3)))
(let ((.def_662 (+ b.delta__AT2 .def_659)))
(let ((.def_663 (+ b.time__AT2 .def_662)))
(let ((.def_664 (= .def_663 0.0 )))
(let ((.def_665 (or .def_593 .def_664)))
(let ((.def_666 (or b.EVENT.1__AT2 .def_665)))
(let ((.def_657 (or .def_592 .def_656)))
(let ((.def_658 (or b.EVENT.1__AT2 .def_657)))
(let ((.def_667 (and .def_658 .def_666)))
(let ((.def_674 (and .def_667 .def_673)))
(let ((.def_652 (= .def_593 b.event_is_timed__AT3)))
(let ((.def_650 (= b.event_is_timed__AT2 .def_592)))
(let ((.def_653 (and .def_650 .def_652)))
(let ((.def_639 (and .def_631 .def_638)))
(let ((.def_595 (= b.y__AT2 0.0 )))
(let ((.def_523 (<= 0.0 b.speed_y__AT2)))
(let ((.def_524 (not .def_523)))
(let ((.def_596 (and .def_524 .def_595)))
(let ((.def_640 (or .def_596 .def_639)))
(let ((.def_608 (or .def_6 b.counter.0__AT2)))
(let ((.def_607 (or b.counter.0__AT3 .def_399)))
(let ((.def_609 (and .def_607 .def_608)))
(let ((.def_610 (and .def_4 .def_609)))
(let ((.def_611 (or b.counter.1__AT2 .def_610)))
(let ((.def_606 (or b.counter.1__AT3 .def_387)))
(let ((.def_612 (and .def_606 .def_611)))
(let ((.def_623 (and .def_9 .def_612)))
(let ((.def_624 (or b.counter.2__AT2 .def_623)))
(let ((.def_618 (and .def_4 .def_399)))
(let ((.def_619 (or b.counter.1__AT2 .def_618)))
(let ((.def_620 (and .def_606 .def_619)))
(let ((.def_621 (and b.counter.2__AT3 .def_620)))
(let ((.def_622 (or .def_394 .def_621)))
(let ((.def_625 (and .def_622 .def_624)))
(let ((.def_626 (and b.counter.3__AT3 .def_625)))
(let ((.def_627 (or b.counter.3__AT2 .def_626)))
(let ((.def_613 (and b.counter.2__AT3 .def_612)))
(let ((.def_614 (or b.counter.2__AT2 .def_613)))
(let ((.def_602 (or b.counter.1__AT3 b.counter.1__AT2)))
(let ((.def_600 (and .def_4 b.counter.0__AT3)))
(let ((.def_601 (or .def_387 .def_600)))
(let ((.def_603 (and .def_601 .def_602)))
(let ((.def_604 (and .def_9 .def_603)))
(let ((.def_605 (or .def_394 .def_604)))
(let ((.def_615 (and .def_605 .def_614)))
(let ((.def_616 (and .def_12 .def_615)))
(let ((.def_617 (or .def_409 .def_616)))
(let ((.def_628 (and .def_617 .def_627)))
(let ((.def_363 (* (- 1.0) b.speed_y__AT2)))
(let ((.def_170 (* (- 1.0) speed_loss__AT0)))
(let ((.def_171 (+ 1.0 .def_170)))
(let ((.def_598 (* .def_171 .def_363)))
(let ((.def_599 (= b.speed_y__AT3 .def_598)))
(let ((.def_629 (and .def_599 .def_628)))
(let ((.def_597 (not .def_596)))
(let ((.def_630 (or .def_597 .def_629)))
(let ((.def_641 (and .def_630 .def_640)))
(let ((.def_643 (and .def_641 .def_642)))
(let ((.def_644 (and .def_573 .def_643)))
(let ((.def_646 (and .def_644 .def_645)))
(let ((.def_647 (or .def_592 .def_646)))
(let ((.def_648 (or b.EVENT.1__AT2 .def_647)))
(let ((.def_583 (* (- 1.0) b.y__AT3)))
(let ((.def_514 (* b.speed_y__AT2 b.delta__AT2)))
(let ((.def_587 (+ .def_514 .def_583)))
(let ((.def_512 (* b.delta__AT2 b.delta__AT2)))
(let ((.def_513 (* .def_77 .def_512)))
(let ((.def_588 (+ .def_513 .def_587)))
(let ((.def_589 (+ b.y__AT2 .def_588)))
(let ((.def_590 (= .def_589 0.0 )))
(let ((.def_577 (* (- 1.0) b.speed_y__AT3)))
(let ((.def_575 (* .def_76 b.delta__AT2)))
(let ((.def_578 (+ .def_575 .def_577)))
(let ((.def_579 (+ b.speed_y__AT2 .def_578)))
(let ((.def_580 (= .def_579 0.0 )))
(let ((.def_568 (* (- 1.0) b.x__AT3)))
(let ((.def_566 (* b.speed_x__AT2 b.delta__AT2)))
(let ((.def_569 (+ .def_566 .def_568)))
(let ((.def_570 (+ b.x__AT2 .def_569)))
(let ((.def_571 (= .def_570 0.0 )))
(let ((.def_574 (and .def_571 .def_573)))
(let ((.def_581 (and .def_574 .def_580)))
(let ((.def_591 (and .def_581 .def_590)))
(let ((.def_594 (or .def_591 .def_593)))
(let ((.def_649 (and .def_594 .def_648)))
(let ((.def_654 (and .def_649 .def_653)))
(let ((.def_675 (and .def_654 .def_674)))
(let ((.def_684 (and .def_675 .def_683)))
(let ((.def_687 (and .def_684 .def_686)))
(let ((.def_691 (and .def_687 .def_690)))
(let ((.def_692 (and .def_495 .def_691)))
(let ((.def_709 (and .def_692 .def_708)))
(let ((.def_715 (and .def_709 .def_714)))
(let ((.def_519 (* .def_84 b.delta__AT2)))
(let ((.def_520 (+ b.speed_y__AT2 .def_519)))
(let ((.def_537 (<= .def_520 0.0 )))
(let ((.def_538 (not .def_537)))
(let ((.def_535 (<= b.speed_y__AT2 0.0 )))
(let ((.def_558 (or .def_535 .def_538)))
(let ((.def_521 (<= 0.0 .def_520)))
(let ((.def_557 (or .def_521 .def_524)))
(let ((.def_559 (and .def_557 .def_558)))
(let ((.def_560 (or .def_124 .def_559)))
(let ((.def_522 (not .def_521)))
(let ((.def_554 (or .def_522 .def_523)))
(let ((.def_536 (not .def_535)))
(let ((.def_553 (or .def_536 .def_537)))
(let ((.def_555 (and .def_553 .def_554)))
(let ((.def_556 (or .def_119 .def_555)))
(let ((.def_561 (and .def_556 .def_560)))
(let ((.def_550 (and .def_535 .def_537)))
(let ((.def_549 (and .def_521 .def_523)))
(let ((.def_551 (or .def_549 .def_550)))
(let ((.def_515 (+ .def_513 .def_514)))
(let ((.def_516 (+ b.y__AT2 .def_515)))
(let ((.def_529 (<= .def_516 0.0 )))
(let ((.def_543 (not .def_529)))
(let ((.def_527 (<= b.y__AT2 0.0 )))
(let ((.def_544 (or .def_527 .def_543)))
(let ((.def_500 (<= 0.0 b.y__AT2)))
(let ((.def_541 (not .def_500)))
(let ((.def_517 (<= 0.0 .def_516)))
(let ((.def_542 (or .def_517 .def_541)))
(let ((.def_545 (and .def_542 .def_544)))
(let ((.def_539 (or .def_536 .def_538)))
(let ((.def_540 (not .def_539)))
(let ((.def_546 (or .def_540 .def_545)))
(let ((.def_531 (not .def_517)))
(let ((.def_532 (or .def_500 .def_531)))
(let ((.def_528 (not .def_527)))
(let ((.def_530 (or .def_528 .def_529)))
(let ((.def_533 (and .def_530 .def_532)))
(let ((.def_525 (or .def_522 .def_524)))
(let ((.def_526 (not .def_525)))
(let ((.def_534 (or .def_526 .def_533)))
(let ((.def_547 (and .def_534 .def_546)))
(let ((.def_518 (and .def_500 .def_517)))
(let ((.def_548 (and .def_518 .def_547)))
(let ((.def_552 (and .def_548 .def_551)))
(let ((.def_562 (and .def_552 .def_561)))
(let ((.def_563 (and .def_58 .def_562)))
(let ((.def_564 (and .def_66 .def_563)))
(let ((.def_187 (not b.counter.0__AT1)))
(let ((.def_175 (not b.counter.1__AT1)))
(let ((.def_504 (and .def_175 .def_187)))
(let ((.def_507 (or b.counter.3__AT1 .def_504)))
(let ((.def_182 (not b.counter.2__AT1)))
(let ((.def_505 (and .def_182 .def_504)))
(let ((.def_197 (not b.counter.3__AT1)))
(let ((.def_506 (or .def_197 .def_505)))
(let ((.def_508 (and .def_506 .def_507)))
(let ((.def_501 (and .def_67 .def_500)))
(let ((.def_498 (or .def_495 .def_497)))
(let ((.def_488 (or .def_387 .def_399)))
(let ((.def_492 (or b.counter.3__AT2 .def_488)))
(let ((.def_489 (or b.counter.2__AT2 .def_488)))
(let ((.def_487 (or .def_394 .def_399)))
(let ((.def_490 (and .def_487 .def_489)))
(let ((.def_491 (or .def_409 .def_490)))
(let ((.def_493 (and .def_491 .def_492)))
(let ((.def_499 (and .def_493 .def_498)))
(let ((.def_502 (and .def_499 .def_501)))
(let ((.def_482 (<= 0.0 b.delta__AT1)))
(let ((.def_285 (not b.EVENT.0__AT1)))
(let ((.def_283 (not b.EVENT.1__AT1)))
(let ((.def_378 (and .def_283 .def_285)))
(let ((.def_379 (not .def_378)))
(let ((.def_483 (or .def_379 .def_482)))
(let ((.def_484 (or b.EVENT.1__AT1 .def_483)))
(let ((.def_431 (= b.counter.0__AT1 b.counter.0__AT2)))
(let ((.def_429 (= b.counter.1__AT1 b.counter.1__AT2)))
(let ((.def_427 (= b.counter.2__AT1 b.counter.2__AT2)))
(let ((.def_426 (= b.counter.3__AT1 b.counter.3__AT2)))
(let ((.def_428 (and .def_426 .def_427)))
(let ((.def_430 (and .def_428 .def_429)))
(let ((.def_432 (and .def_430 .def_431)))
(let ((.def_479 (or .def_379 .def_432)))
(let ((.def_480 (or b.EVENT.1__AT1 .def_479)))
(let ((.def_439 (= b.x__AT1 b.x__AT2)))
(let ((.def_436 (= b.y__AT1 b.y__AT2)))
(let ((.def_473 (and .def_436 .def_439)))
(let ((.def_359 (= b.speed_x__AT1 b.speed_x__AT2)))
(let ((.def_474 (and .def_359 .def_473)))
(let ((.def_425 (= b.speed_y__AT1 b.speed_y__AT2)))
(let ((.def_475 (and .def_425 .def_474)))
(let ((.def_470 (= b.delta__AT1 0.0 )))
(let ((.def_471 (and .def_378 .def_470)))
(let ((.def_472 (not .def_471)))
(let ((.def_476 (or .def_472 .def_475)))
(let ((.def_477 (or b.EVENT.1__AT1 .def_476)))
(let ((.def_450 (= b.time__AT1 b.time__AT2)))
(let ((.def_462 (and .def_439 .def_450)))
(let ((.def_463 (and .def_436 .def_462)))
(let ((.def_464 (and .def_359 .def_463)))
(let ((.def_465 (and .def_425 .def_464)))
(let ((.def_466 (and .def_432 .def_465)))
(let ((.def_467 (or .def_283 .def_466)))
(let ((.def_453 (* (- 1.0) b.time__AT2)))
(let ((.def_456 (+ b.delta__AT1 .def_453)))
(let ((.def_457 (+ b.time__AT1 .def_456)))
(let ((.def_458 (= .def_457 0.0 )))
(let ((.def_459 (or .def_379 .def_458)))
(let ((.def_460 (or b.EVENT.1__AT1 .def_459)))
(let ((.def_451 (or .def_378 .def_450)))
(let ((.def_452 (or b.EVENT.1__AT1 .def_451)))
(let ((.def_461 (and .def_452 .def_460)))
(let ((.def_468 (and .def_461 .def_467)))
(let ((.def_446 (= .def_379 b.event_is_timed__AT2)))
(let ((.def_444 (= b.event_is_timed__AT1 .def_378)))
(let ((.def_447 (and .def_444 .def_446)))
(let ((.def_433 (and .def_425 .def_432)))
(let ((.def_381 (= b.y__AT1 0.0 )))
(let ((.def_309 (<= 0.0 b.speed_y__AT1)))
(let ((.def_310 (not .def_309)))
(let ((.def_382 (and .def_310 .def_381)))
(let ((.def_434 (or .def_382 .def_433)))
(let ((.def_400 (or b.counter.0__AT1 .def_399)))
(let ((.def_398 (or .def_187 b.counter.0__AT2)))
(let ((.def_401 (and .def_398 .def_400)))
(let ((.def_402 (and .def_387 .def_401)))
(let ((.def_403 (or b.counter.1__AT1 .def_402)))
(let ((.def_397 (or .def_175 b.counter.1__AT2)))
(let ((.def_404 (and .def_397 .def_403)))
(let ((.def_417 (and .def_394 .def_404)))
(let ((.def_418 (or b.counter.2__AT1 .def_417)))
(let ((.def_412 (and .def_187 .def_387)))
(let ((.def_413 (or b.counter.1__AT1 .def_412)))
(let ((.def_414 (and .def_397 .def_413)))
(let ((.def_415 (and b.counter.2__AT2 .def_414)))
(let ((.def_416 (or .def_182 .def_415)))
(let ((.def_419 (and .def_416 .def_418)))
(let ((.def_420 (and b.counter.3__AT2 .def_419)))
(let ((.def_421 (or b.counter.3__AT1 .def_420)))
(let ((.def_405 (and b.counter.2__AT2 .def_404)))
(let ((.def_406 (or b.counter.2__AT1 .def_405)))
(let ((.def_391 (or b.counter.1__AT1 b.counter.1__AT2)))
(let ((.def_389 (and .def_387 b.counter.0__AT2)))
(let ((.def_390 (or .def_175 .def_389)))
(let ((.def_392 (and .def_390 .def_391)))
(let ((.def_395 (and .def_392 .def_394)))
(let ((.def_396 (or .def_182 .def_395)))
(let ((.def_407 (and .def_396 .def_406)))
(let ((.def_410 (and .def_407 .def_409)))
(let ((.def_411 (or .def_197 .def_410)))
(let ((.def_422 (and .def_411 .def_421)))
(let ((.def_149 (* (- 1.0) b.speed_y__AT1)))
(let ((.def_384 (* .def_149 .def_171)))
(let ((.def_385 (= b.speed_y__AT2 .def_384)))
(let ((.def_423 (and .def_385 .def_422)))
(let ((.def_383 (not .def_382)))
(let ((.def_424 (or .def_383 .def_423)))
(let ((.def_435 (and .def_424 .def_434)))
(let ((.def_437 (and .def_435 .def_436)))
(let ((.def_438 (and .def_359 .def_437)))
(let ((.def_440 (and .def_438 .def_439)))
(let ((.def_441 (or .def_378 .def_440)))
(let ((.def_442 (or b.EVENT.1__AT1 .def_441)))
(let ((.def_369 (* (- 1.0) b.y__AT2)))
(let ((.def_300 (* b.speed_y__AT1 b.delta__AT1)))
(let ((.def_373 (+ .def_300 .def_369)))
(let ((.def_298 (* b.delta__AT1 b.delta__AT1)))
(let ((.def_299 (* .def_77 .def_298)))
(let ((.def_374 (+ .def_299 .def_373)))
(let ((.def_375 (+ b.y__AT1 .def_374)))
(let ((.def_376 (= .def_375 0.0 )))
(let ((.def_361 (* .def_76 b.delta__AT1)))
(let ((.def_364 (+ .def_361 .def_363)))
(let ((.def_365 (+ b.speed_y__AT1 .def_364)))
(let ((.def_366 (= .def_365 0.0 )))
(let ((.def_354 (* (- 1.0) b.x__AT2)))
(let ((.def_352 (* b.speed_x__AT1 b.delta__AT1)))
(let ((.def_355 (+ .def_352 .def_354)))
(let ((.def_356 (+ b.x__AT1 .def_355)))
(let ((.def_357 (= .def_356 0.0 )))
(let ((.def_360 (and .def_357 .def_359)))
(let ((.def_367 (and .def_360 .def_366)))
(let ((.def_377 (and .def_367 .def_376)))
(let ((.def_380 (or .def_377 .def_379)))
(let ((.def_443 (and .def_380 .def_442)))
(let ((.def_448 (and .def_443 .def_447)))
(let ((.def_469 (and .def_448 .def_468)))
(let ((.def_478 (and .def_469 .def_477)))
(let ((.def_481 (and .def_478 .def_480)))
(let ((.def_485 (and .def_481 .def_484)))
(let ((.def_486 (and .def_283 .def_485)))
(let ((.def_503 (and .def_486 .def_502)))
(let ((.def_509 (and .def_503 .def_508)))
(let ((.def_305 (* .def_84 b.delta__AT1)))
(let ((.def_306 (+ b.speed_y__AT1 .def_305)))
(let ((.def_323 (<= .def_306 0.0 )))
(let ((.def_324 (not .def_323)))
(let ((.def_321 (<= b.speed_y__AT1 0.0 )))
(let ((.def_344 (or .def_321 .def_324)))
(let ((.def_307 (<= 0.0 .def_306)))
(let ((.def_343 (or .def_307 .def_310)))
(let ((.def_345 (and .def_343 .def_344)))
(let ((.def_346 (or .def_124 .def_345)))
(let ((.def_308 (not .def_307)))
(let ((.def_340 (or .def_308 .def_309)))
(let ((.def_322 (not .def_321)))
(let ((.def_339 (or .def_322 .def_323)))
(let ((.def_341 (and .def_339 .def_340)))
(let ((.def_342 (or .def_119 .def_341)))
(let ((.def_347 (and .def_342 .def_346)))
(let ((.def_336 (and .def_321 .def_323)))
(let ((.def_335 (and .def_307 .def_309)))
(let ((.def_337 (or .def_335 .def_336)))
(let ((.def_301 (+ .def_299 .def_300)))
(let ((.def_302 (+ b.y__AT1 .def_301)))
(let ((.def_315 (<= .def_302 0.0 )))
(let ((.def_329 (not .def_315)))
(let ((.def_313 (<= b.y__AT1 0.0 )))
(let ((.def_330 (or .def_313 .def_329)))
(let ((.def_288 (<= 0.0 b.y__AT1)))
(let ((.def_327 (not .def_288)))
(let ((.def_303 (<= 0.0 .def_302)))
(let ((.def_328 (or .def_303 .def_327)))
(let ((.def_331 (and .def_328 .def_330)))
(let ((.def_325 (or .def_322 .def_324)))
(let ((.def_326 (not .def_325)))
(let ((.def_332 (or .def_326 .def_331)))
(let ((.def_317 (not .def_303)))
(let ((.def_318 (or .def_288 .def_317)))
(let ((.def_314 (not .def_313)))
(let ((.def_316 (or .def_314 .def_315)))
(let ((.def_319 (and .def_316 .def_318)))
(let ((.def_311 (or .def_308 .def_310)))
(let ((.def_312 (not .def_311)))
(let ((.def_320 (or .def_312 .def_319)))
(let ((.def_333 (and .def_320 .def_332)))
(let ((.def_304 (and .def_288 .def_303)))
(let ((.def_334 (and .def_304 .def_333)))
(let ((.def_338 (and .def_334 .def_337)))
(let ((.def_348 (and .def_338 .def_347)))
(let ((.def_349 (and .def_58 .def_348)))
(let ((.def_350 (and .def_66 .def_349)))
(let ((.def_32 (not b.counter.0__AT0)))
(let ((.def_30 (not b.counter.1__AT0)))
(let ((.def_33 (and .def_30 .def_32)))
(let ((.def_293 (or .def_33 b.counter.3__AT0)))
(let ((.def_38 (not b.counter.3__AT0)))
(let ((.def_35 (not b.counter.2__AT0)))
(let ((.def_36 (and .def_33 .def_35)))
(let ((.def_292 (or .def_36 .def_38)))
(let ((.def_294 (and .def_292 .def_293)))
(let ((.def_289 (and .def_67 .def_288)))
(let ((.def_286 (or .def_283 .def_285)))
(let ((.def_276 (or .def_175 .def_187)))
(let ((.def_280 (or b.counter.3__AT1 .def_276)))
(let ((.def_277 (or b.counter.2__AT1 .def_276)))
(let ((.def_275 (or .def_182 .def_187)))
(let ((.def_278 (and .def_275 .def_277)))
(let ((.def_279 (or .def_197 .def_278)))
(let ((.def_281 (and .def_279 .def_280)))
(let ((.def_287 (and .def_281 .def_286)))
(let ((.def_290 (and .def_287 .def_289)))
(let ((.def_270 (<= 0.0 b.delta__AT0)))
(let ((.def_51 (not b.EVENT.0__AT0)))
(let ((.def_49 (not b.EVENT.1__AT0)))
(let ((.def_163 (and .def_49 .def_51)))
(let ((.def_164 (not .def_163)))
(let ((.def_271 (or .def_164 .def_270)))
(let ((.def_272 (or b.EVENT.1__AT0 .def_271)))
(let ((.def_219 (= b.counter.0__AT0 b.counter.0__AT1)))
(let ((.def_217 (= b.counter.1__AT0 b.counter.1__AT1)))
(let ((.def_215 (= b.counter.2__AT0 b.counter.2__AT1)))
(let ((.def_214 (= b.counter.3__AT0 b.counter.3__AT1)))
(let ((.def_216 (and .def_214 .def_215)))
(let ((.def_218 (and .def_216 .def_217)))
(let ((.def_220 (and .def_218 .def_219)))
(let ((.def_267 (or .def_164 .def_220)))
(let ((.def_268 (or b.EVENT.1__AT0 .def_267)))
(let ((.def_227 (= b.x__AT1 b.x__AT0)))
(let ((.def_224 (= b.y__AT0 b.y__AT1)))
(let ((.def_261 (and .def_224 .def_227)))
(let ((.def_145 (= b.speed_x__AT0 b.speed_x__AT1)))
(let ((.def_262 (and .def_145 .def_261)))
(let ((.def_213 (= b.speed_y__AT0 b.speed_y__AT1)))
(let ((.def_263 (and .def_213 .def_262)))
(let ((.def_258 (= b.delta__AT0 0.0 )))
(let ((.def_259 (and .def_163 .def_258)))
(let ((.def_260 (not .def_259)))
(let ((.def_264 (or .def_260 .def_263)))
(let ((.def_265 (or b.EVENT.1__AT0 .def_264)))
(let ((.def_238 (= b.time__AT0 b.time__AT1)))
(let ((.def_250 (and .def_227 .def_238)))
(let ((.def_251 (and .def_224 .def_250)))
(let ((.def_252 (and .def_145 .def_251)))
(let ((.def_253 (and .def_213 .def_252)))
(let ((.def_254 (and .def_220 .def_253)))
(let ((.def_255 (or .def_49 .def_254)))
(let ((.def_241 (* (- 1.0) b.time__AT1)))
(let ((.def_244 (+ b.delta__AT0 .def_241)))
(let ((.def_245 (+ b.time__AT0 .def_244)))
(let ((.def_246 (= .def_245 0.0 )))
(let ((.def_247 (or .def_164 .def_246)))
(let ((.def_248 (or b.EVENT.1__AT0 .def_247)))
(let ((.def_239 (or .def_163 .def_238)))
(let ((.def_240 (or b.EVENT.1__AT0 .def_239)))
(let ((.def_249 (and .def_240 .def_248)))
(let ((.def_256 (and .def_249 .def_255)))
(let ((.def_234 (= .def_164 b.event_is_timed__AT1)))
(let ((.def_232 (= b.event_is_timed__AT0 .def_163)))
(let ((.def_235 (and .def_232 .def_234)))
(let ((.def_221 (and .def_213 .def_220)))
(let ((.def_166 (= b.y__AT0 0.0 )))
(let ((.def_89 (<= 0.0 b.speed_y__AT0)))
(let ((.def_90 (not .def_89)))
(let ((.def_167 (and .def_90 .def_166)))
(let ((.def_222 (or .def_167 .def_221)))
(let ((.def_188 (or b.counter.0__AT0 .def_187)))
(let ((.def_186 (or .def_32 b.counter.0__AT1)))
(let ((.def_189 (and .def_186 .def_188)))
(let ((.def_190 (and .def_175 .def_189)))
(let ((.def_191 (or b.counter.1__AT0 .def_190)))
(let ((.def_185 (or .def_30 b.counter.1__AT1)))
(let ((.def_192 (and .def_185 .def_191)))
(let ((.def_205 (and .def_182 .def_192)))
(let ((.def_206 (or b.counter.2__AT0 .def_205)))
(let ((.def_200 (and .def_32 .def_175)))
(let ((.def_201 (or b.counter.1__AT0 .def_200)))
(let ((.def_202 (and .def_185 .def_201)))
(let ((.def_203 (and b.counter.2__AT1 .def_202)))
(let ((.def_204 (or .def_35 .def_203)))
(let ((.def_207 (and .def_204 .def_206)))
(let ((.def_208 (and b.counter.3__AT1 .def_207)))
(let ((.def_209 (or b.counter.3__AT0 .def_208)))
(let ((.def_193 (and b.counter.2__AT1 .def_192)))
(let ((.def_194 (or b.counter.2__AT0 .def_193)))
(let ((.def_179 (or b.counter.1__AT0 b.counter.1__AT1)))
(let ((.def_177 (and .def_175 b.counter.0__AT1)))
(let ((.def_178 (or .def_30 .def_177)))
(let ((.def_180 (and .def_178 .def_179)))
(let ((.def_183 (and .def_180 .def_182)))
(let ((.def_184 (or .def_35 .def_183)))
(let ((.def_195 (and .def_184 .def_194)))
(let ((.def_198 (and .def_195 .def_197)))
(let ((.def_199 (or .def_38 .def_198)))
(let ((.def_210 (and .def_199 .def_209)))
(let ((.def_169 (* (- 1.0) b.speed_y__AT0)))
(let ((.def_172 (* .def_169 .def_171)))
(let ((.def_173 (= b.speed_y__AT1 .def_172)))
(let ((.def_211 (and .def_173 .def_210)))
(let ((.def_168 (not .def_167)))
(let ((.def_212 (or .def_168 .def_211)))
(let ((.def_223 (and .def_212 .def_222)))
(let ((.def_225 (and .def_223 .def_224)))
(let ((.def_226 (and .def_145 .def_225)))
(let ((.def_228 (and .def_226 .def_227)))
(let ((.def_229 (or .def_163 .def_228)))
(let ((.def_230 (or b.EVENT.1__AT0 .def_229)))
(let ((.def_155 (* (- 1.0) b.y__AT1)))
(let ((.def_79 (* b.speed_y__AT0 b.delta__AT0)))
(let ((.def_158 (+ .def_79 .def_155)))
(let ((.def_74 (* b.delta__AT0 b.delta__AT0)))
(let ((.def_78 (* .def_74 .def_77)))
(let ((.def_159 (+ .def_78 .def_158)))
(let ((.def_160 (+ b.y__AT0 .def_159)))
(let ((.def_161 (= .def_160 0.0 )))
(let ((.def_147 (* b.delta__AT0 .def_76)))
(let ((.def_150 (+ .def_147 .def_149)))
(let ((.def_151 (+ b.speed_y__AT0 .def_150)))
(let ((.def_152 (= .def_151 0.0 )))
(let ((.def_137 (* (- 1.0) b.x__AT1)))
(let ((.def_141 (+ .def_137 b.x__AT0)))
(let ((.def_135 (* b.delta__AT0 b.speed_x__AT0)))
(let ((.def_142 (+ .def_135 .def_141)))
(let ((.def_143 (= .def_142 0.0 )))
(let ((.def_146 (and .def_143 .def_145)))
(let ((.def_153 (and .def_146 .def_152)))
(let ((.def_162 (and .def_153 .def_161)))
(let ((.def_165 (or .def_162 .def_164)))
(let ((.def_231 (and .def_165 .def_230)))
(let ((.def_236 (and .def_231 .def_235)))
(let ((.def_257 (and .def_236 .def_256)))
(let ((.def_266 (and .def_257 .def_265)))
(let ((.def_269 (and .def_266 .def_268)))
(let ((.def_273 (and .def_269 .def_272)))
(let ((.def_274 (and .def_49 .def_273)))
(let ((.def_291 (and .def_274 .def_290)))
(let ((.def_295 (and .def_291 .def_294)))
(let ((.def_85 (* b.delta__AT0 .def_84)))
(let ((.def_86 (+ b.speed_y__AT0 .def_85)))
(let ((.def_103 (<= .def_86 0.0 )))
(let ((.def_104 (not .def_103)))
(let ((.def_101 (<= b.speed_y__AT0 0.0 )))
(let ((.def_126 (or .def_101 .def_104)))
(let ((.def_87 (<= 0.0 .def_86)))
(let ((.def_125 (or .def_87 .def_90)))
(let ((.def_127 (and .def_125 .def_126)))
(let ((.def_128 (or .def_124 .def_127)))
(let ((.def_88 (not .def_87)))
(let ((.def_121 (or .def_88 .def_89)))
(let ((.def_102 (not .def_101)))
(let ((.def_120 (or .def_102 .def_103)))
(let ((.def_122 (and .def_120 .def_121)))
(let ((.def_123 (or .def_119 .def_122)))
(let ((.def_129 (and .def_123 .def_128)))
(let ((.def_116 (and .def_101 .def_103)))
(let ((.def_115 (and .def_87 .def_89)))
(let ((.def_117 (or .def_115 .def_116)))
(let ((.def_80 (+ .def_78 .def_79)))
(let ((.def_81 (+ b.y__AT0 .def_80)))
(let ((.def_95 (<= .def_81 0.0 )))
(let ((.def_109 (not .def_95)))
(let ((.def_93 (<= b.y__AT0 0.0 )))
(let ((.def_110 (or .def_93 .def_109)))
(let ((.def_68 (<= 0.0 b.y__AT0)))
(let ((.def_107 (not .def_68)))
(let ((.def_82 (<= 0.0 .def_81)))
(let ((.def_108 (or .def_82 .def_107)))
(let ((.def_111 (and .def_108 .def_110)))
(let ((.def_105 (or .def_102 .def_104)))
(let ((.def_106 (not .def_105)))
(let ((.def_112 (or .def_106 .def_111)))
(let ((.def_97 (not .def_82)))
(let ((.def_98 (or .def_68 .def_97)))
(let ((.def_94 (not .def_93)))
(let ((.def_96 (or .def_94 .def_95)))
(let ((.def_99 (and .def_96 .def_98)))
(let ((.def_91 (or .def_88 .def_90)))
(let ((.def_92 (not .def_91)))
(let ((.def_100 (or .def_92 .def_99)))
(let ((.def_113 (and .def_100 .def_112)))
(let ((.def_83 (and .def_68 .def_82)))
(let ((.def_114 (and .def_83 .def_113)))
(let ((.def_118 (and .def_114 .def_117)))
(let ((.def_130 (and .def_118 .def_129)))
(let ((.def_131 (and .def_58 .def_130)))
(let ((.def_132 (and .def_66 .def_131)))
(let ((.def_69 (and .def_67 .def_68)))
(let ((.def_52 (or .def_49 .def_51)))
(let ((.def_42 (or .def_30 .def_32)))
(let ((.def_46 (or b.counter.3__AT0 .def_42)))
(let ((.def_43 (or b.counter.2__AT0 .def_42)))
(let ((.def_41 (or .def_32 .def_35)))
(let ((.def_44 (and .def_41 .def_43)))
(let ((.def_45 (or .def_38 .def_44)))
(let ((.def_47 (and .def_45 .def_46)))
(let ((.def_53 (and .def_47 .def_52)))
(let ((.def_70 (and .def_53 .def_69)))
(let ((.def_39 (and .def_36 .def_38)))
(let ((.def_27 (= b.speed_y__AT0 0.0 )))
(let ((.def_24 (= b.y__AT0 10.0 )))
(let ((.def_19 (= b.time__AT0 0.0 )))
(let ((.def_21 (and .def_19 b.event_is_timed__AT0)))
(let ((.def_25 (and .def_21 .def_24)))
(let ((.def_28 (and .def_25 .def_27)))
(let ((.def_40 (and .def_28 .def_39)))
(let ((.def_71 (and .def_40 .def_70)))
(let ((.def_7 (and .def_4 .def_6)))
(let ((.def_14 (or .def_7 b.counter.3__AT3)))
(let ((.def_10 (and .def_7 .def_9)))
(let ((.def_13 (or .def_10 .def_12)))
(let ((.def_15 (and .def_13 .def_14)))
(let ((.def_16 (not .def_15)))
(let ((.def_72 (and .def_16 .def_71)))
(let ((.def_133 (and .def_72 .def_132)))
(let ((.def_296 (and .def_133 .def_295)))
(let ((.def_351 (and .def_296 .def_350)))
(let ((.def_510 (and .def_351 .def_509)))
(let ((.def_565 (and .def_510 .def_564)))
(let ((.def_716 (and .def_565 .def_715)))
(let ((.def_771 (and .def_716 .def_770)))
.def_771))))))))))))))))))))))))))))))))))))))))))))))))))))))))))))))))))))))))))))))))))))))))))))))))))))))))))))))))))))))))))))))))))))))))))))))))))))))))))))))))))))))))))))))))))))))))))))))))))))))))))))))))))))))))))))))))))))))))))))))))))))))))))))))))))))))))))))))))))))))))))))))))))))))))))))))))))))))))))))))))))))))))))))))))))))))))))))))))))))))))))))))))))))))))))))))))))))))))))))))))))))))))))))))))))))))))))))))))))))))))))))))))))))))))))))))))))))))))))))))))))))))))))))))))))))))))))))))))))))))))))))))))))))))))))))))))))))))))))))))))))))))))))))))))))))))))))))))))))))))))))))))))))))))))))))))))))))))))))))))))))))))))))))))))))))))))))))))))))))))))))))))))))))
(check-sat)
(exit)
